320563
81,72,22,35,9,19,21,17,83,56,40,5,23,41,52,6,2,75,61,15,69,12,28,79,44,30,74,26,76,54,66,33,4,39,63,60,55,51,34,57,25,16,50,59,65,48,37,1,10,29,58,11,20,18,8,78,73,64,62,67,14,45,31,24,71,77,53,82,32,7,49,3,43,38,42,47,27,13,46,36,80,70,68